p cnf 272 786
c inputs: 1 2 3 4 5 6 7 8 9 10
c variables for gates: 11 ... 262
c outputs: 263 264 265 266 267 268 269 270 271 272
c random input: -1 -2 -3 4 5 6 -7 8 9 10
11 -2 -6 0
-11 2 0
-11 6 0
12 -1 -7 0
-12 1 0
-12 7 0
13 -11 12 0
-13 11 0
-13 -12 0
14 -12 11 0
-14 12 0
-14 -11 0
15 14 13 0
-15 -14 0
-15 -13 0
16 -2 -6 0
-16 2 0
-16 6 0
17 -1 -7 0
-17 1 0
-17 7 0
18 -16 -17 0
-18 16 0
-18 17 0
19 -3 -6 0
-19 3 0
-19 6 0
20 -2 -7 0
-20 2 0
-20 7 0
21 -20 -19 0
-21 20 0
-21 19 0
22 -3 -6 0
-22 3 0
-22 6 0
23 -22 -18 0
-23 22 0
-23 18 0
24 -2 -7 0
-24 2 0
-24 7 0
25 -24 -18 0
-25 24 0
-25 18 0
26 23 25 0
-26 -23 0
-26 -25 0
27 21 -26 0
-27 -21 0
-27 26 0
28 -3 -6 0
-28 3 0
-28 6 0
29 -2 -7 0
-29 2 0
-29 7 0
30 -29 18 0
-30 29 0
-30 -18 0
31 29 -18 0
-31 -29 0
-31 18 0
32 31 30 0
-32 -31 0
-32 -30 0
33 -28 -32 0
-33 28 0
-33 32 0
34 28 32 0
-34 -28 0
-34 -32 0
35 34 33 0
-35 -34 0
-35 -33 0
36 -4 -6 0
-36 4 0
-36 6 0
37 -3 -7 0
-37 3 0
-37 7 0
38 -36 -37 0
-38 36 0
-38 37 0
39 -4 -6 0
-39 4 0
-39 6 0
40 -39 27 0
-40 39 0
-40 -27 0
41 -3 -7 0
-41 3 0
-41 7 0
42 -41 27 0
-42 41 0
-42 -27 0
43 42 40 0
-43 -42 0
-43 -40 0
44 38 -43 0
-44 -38 0
-44 43 0
45 -4 -6 0
-45 4 0
-45 6 0
46 -3 -7 0
-46 3 0
-46 7 0
47 -46 -27 0
-47 46 0
-47 27 0
48 46 27 0
-48 -46 0
-48 -27 0
49 47 48 0
-49 -47 0
-49 -48 0
50 -45 -49 0
-50 45 0
-50 49 0
51 45 49 0
-51 -45 0
-51 -49 0
52 51 50 0
-52 -51 0
-52 -50 0
53 -5 -6 0
-53 5 0
-53 6 0
54 -4 -7 0
-54 4 0
-54 7 0
55 -54 -53 0
-55 54 0
-55 53 0
56 -5 -6 0
-56 5 0
-56 6 0
57 -56 44 0
-57 56 0
-57 -44 0
58 -4 -7 0
-58 4 0
-58 7 0
59 -58 44 0
-59 58 0
-59 -44 0
60 59 57 0
-60 -59 0
-60 -57 0
61 55 -60 0
-61 -55 0
-61 60 0
62 -5 -6 0
-62 5 0
-62 6 0
63 -4 -7 0
-63 4 0
-63 7 0
64 -63 -44 0
-64 63 0
-64 44 0
65 63 44 0
-65 -63 0
-65 -44 0
66 65 64 0
-66 -65 0
-66 -64 0
67 -62 -66 0
-67 62 0
-67 66 0
68 62 66 0
-68 -62 0
-68 -66 0
69 67 68 0
-69 -67 0
-69 -68 0
70 -5 -7 0
-70 5 0
-70 7 0
71 -70 61 0
-71 70 0
-71 -61 0
72 -5 -7 0
-72 5 0
-72 7 0
73 -72 -61 0
-73 72 0
-73 61 0
74 72 61 0
-74 -72 0
-74 -61 0
75 73 74 0
-75 -73 0
-75 -74 0
76 -1 -8 0
-76 1 0
-76 8 0
77 76 35 0
-77 -76 0
-77 -35 0
78 -76 -35 0
-78 76 0
-78 35 0
79 78 77 0
-79 -78 0
-79 -77 0
80 -1 -8 0
-80 1 0
-80 8 0
81 -80 35 0
-81 80 0
-81 -35 0
82 -2 -8 0
-82 2 0
-82 8 0
83 -82 52 0
-83 82 0
-83 -52 0
84 52 -81 0
-84 -52 0
-84 81 0
85 -2 -8 0
-85 2 0
-85 8 0
86 -85 -81 0
-86 85 0
-86 81 0
87 86 84 0
-87 -86 0
-87 -84 0
88 83 -87 0
-88 -83 0
-88 87 0
89 -2 -8 0
-89 2 0
-89 8 0
90 -89 81 0
-90 89 0
-90 -81 0
91 89 -81 0
-91 -89 0
-91 81 0
92 91 90 0
-92 -91 0
-92 -90 0
93 52 -92 0
-93 -52 0
-93 92 0
94 -52 92 0
-94 52 0
-94 -92 0
95 94 93 0
-95 -94 0
-95 -93 0
96 -3 -8 0
-96 3 0
-96 8 0
97 -96 69 0
-97 96 0
-97 -69 0
98 69 88 0
-98 -69 0
-98 -88 0
99 -3 -8 0
-99 3 0
-99 8 0
100 -99 88 0
-100 99 0
-100 -88 0
101 98 100 0
-101 -98 0
-101 -100 0
102 97 -101 0
-102 -97 0
-102 101 0
103 -3 -8 0
-103 3 0
-103 8 0
104 -103 -88 0
-104 103 0
-104 88 0
105 103 88 0
-105 -103 0
-105 -88 0
106 105 104 0
-106 -105 0
-106 -104 0
107 69 -106 0
-107 -69 0
-107 106 0
108 -69 106 0
-108 69 0
-108 -106 0
109 107 108 0
-109 -107 0
-109 -108 0
110 -4 -8 0
-110 4 0
-110 8 0
111 -110 75 0
-111 110 0
-111 -75 0
112 75 102 0
-112 -75 0
-112 -102 0
113 -4 -8 0
-113 4 0
-113 8 0
114 -113 102 0
-114 113 0
-114 -102 0
115 112 114 0
-115 -112 0
-115 -114 0
116 111 -115 0
-116 -111 0
-116 115 0
117 -4 -8 0
-117 4 0
-117 8 0
118 -117 -102 0
-118 117 0
-118 102 0
119 117 102 0
-119 -117 0
-119 -102 0
120 119 118 0
-120 -119 0
-120 -118 0
121 -120 75 0
-121 120 0
-121 -75 0
122 120 -75 0
-122 -120 0
-122 75 0
123 122 121 0
-123 -122 0
-123 -121 0
124 -5 -8 0
-124 5 0
-124 8 0
125 -124 -71 0
-125 124 0
-125 71 0
126 -71 116 0
-126 71 0
-126 -116 0
127 -5 -8 0
-127 5 0
-127 8 0
128 -127 116 0
-128 127 0
-128 -116 0
129 126 128 0
-129 -126 0
-129 -128 0
130 -129 125 0
-130 129 0
-130 -125 0
131 -5 -8 0
-131 5 0
-131 8 0
132 -131 -116 0
-132 131 0
-132 116 0
133 131 116 0
-133 -131 0
-133 -116 0
134 132 133 0
-134 -132 0
-134 -133 0
135 -71 -134 0
-135 71 0
-135 134 0
136 71 134 0
-136 -71 0
-136 -134 0
137 135 136 0
-137 -135 0
-137 -136 0
138 -1 -9 0
-138 1 0
-138 9 0
139 138 95 0
-139 -138 0
-139 -95 0
140 -138 -95 0
-140 138 0
-140 95 0
141 140 139 0
-141 -140 0
-141 -139 0
142 -1 -9 0
-142 1 0
-142 9 0
143 -142 95 0
-143 142 0
-143 -95 0
144 -2 -9 0
-144 2 0
-144 9 0
145 -144 109 0
-145 144 0
-145 -109 0
146 109 -143 0
-146 -109 0
-146 143 0
147 -2 -9 0
-147 2 0
-147 9 0
148 -147 -143 0
-148 147 0
-148 143 0
149 148 146 0
-149 -148 0
-149 -146 0
150 145 -149 0
-150 -145 0
-150 149 0
151 -2 -9 0
-151 2 0
-151 9 0
152 -151 143 0
-152 151 0
-152 -143 0
153 151 -143 0
-153 -151 0
-153 143 0
154 152 153 0
-154 -152 0
-154 -153 0
155 109 -154 0
-155 -109 0
-155 154 0
156 -109 154 0
-156 109 0
-156 -154 0
157 155 156 0
-157 -155 0
-157 -156 0
158 -3 -9 0
-158 3 0
-158 9 0
159 -158 123 0
-159 158 0
-159 -123 0
160 150 123 0
-160 -150 0
-160 -123 0
161 -3 -9 0
-161 3 0
-161 9 0
162 -161 150 0
-162 161 0
-162 -150 0
163 160 162 0
-163 -160 0
-163 -162 0
164 159 -163 0
-164 -159 0
-164 163 0
165 -3 -9 0
-165 3 0
-165 9 0
166 -165 -150 0
-166 165 0
-166 150 0
167 165 150 0
-167 -165 0
-167 -150 0
168 167 166 0
-168 -167 0
-168 -166 0
169 -168 123 0
-169 168 0
-169 -123 0
170 168 -123 0
-170 -168 0
-170 123 0
171 169 170 0
-171 -169 0
-171 -170 0
172 -4 -9 0
-172 4 0
-172 9 0
173 -172 137 0
-173 172 0
-173 -137 0
174 164 137 0
-174 -164 0
-174 -137 0
175 -4 -9 0
-175 4 0
-175 9 0
176 -175 164 0
-176 175 0
-176 -164 0
177 176 174 0
-177 -176 0
-177 -174 0
178 -177 173 0
-178 177 0
-178 -173 0
179 -4 -9 0
-179 4 0
-179 9 0
180 -179 -164 0
-180 179 0
-180 164 0
181 179 164 0
-181 -179 0
-181 -164 0
182 181 180 0
-182 -181 0
-182 -180 0
183 -182 137 0
-183 182 0
-183 -137 0
184 182 -137 0
-184 -182 0
-184 137 0
185 184 183 0
-185 -184 0
-185 -183 0
186 -5 -9 0
-186 5 0
-186 9 0
187 -186 130 0
-187 186 0
-187 -130 0
188 178 130 0
-188 -178 0
-188 -130 0
189 -5 -9 0
-189 5 0
-189 9 0
190 -189 178 0
-190 189 0
-190 -178 0
191 190 188 0
-191 -190 0
-191 -188 0
192 -191 187 0
-192 191 0
-192 -187 0
193 -5 -9 0
-193 5 0
-193 9 0
194 -193 -178 0
-194 193 0
-194 178 0
195 193 178 0
-195 -193 0
-195 -178 0
196 194 195 0
-196 -194 0
-196 -195 0
197 -196 130 0
-197 196 0
-197 -130 0
198 196 -130 0
-198 -196 0
-198 130 0
199 197 198 0
-199 -197 0
-199 -198 0
200 -1 -10 0
-200 1 0
-200 10 0
201 200 157 0
-201 -200 0
-201 -157 0
202 -200 -157 0
-202 200 0
-202 157 0
203 202 201 0
-203 -202 0
-203 -201 0
204 -1 -10 0
-204 1 0
-204 10 0
205 -204 157 0
-205 204 0
-205 -157 0
206 -2 -10 0
-206 2 0
-206 10 0
207 -206 171 0
-207 206 0
-207 -171 0
208 171 -205 0
-208 -171 0
-208 205 0
209 -2 -10 0
-209 2 0
-209 10 0
210 -209 -205 0
-210 209 0
-210 205 0
211 208 210 0
-211 -208 0
-211 -210 0
212 207 -211 0
-212 -207 0
-212 211 0
213 -2 -10 0
-213 2 0
-213 10 0
214 -213 205 0
-214 213 0
-214 -205 0
215 213 -205 0
-215 -213 0
-215 205 0
216 215 214 0
-216 -215 0
-216 -214 0
217 -216 171 0
-217 216 0
-217 -171 0
218 216 -171 0
-218 -216 0
-218 171 0
219 217 218 0
-219 -217 0
-219 -218 0
220 -3 -10 0
-220 3 0
-220 10 0
221 -220 185 0
-221 220 0
-221 -185 0
222 212 185 0
-222 -212 0
-222 -185 0
223 -3 -10 0
-223 3 0
-223 10 0
224 -223 212 0
-224 223 0
-224 -212 0
225 224 222 0
-225 -224 0
-225 -222 0
226 -225 221 0
-226 225 0
-226 -221 0
227 -3 -10 0
-227 3 0
-227 10 0
228 -227 -212 0
-228 227 0
-228 212 0
229 227 212 0
-229 -227 0
-229 -212 0
230 228 229 0
-230 -228 0
-230 -229 0
231 -230 185 0
-231 230 0
-231 -185 0
232 230 -185 0
-232 -230 0
-232 185 0
233 231 232 0
-233 -231 0
-233 -232 0
234 -4 -10 0
-234 4 0
-234 10 0
235 -234 199 0
-235 234 0
-235 -199 0
236 199 226 0
-236 -199 0
-236 -226 0
237 -4 -10 0
-237 4 0
-237 10 0
238 -237 226 0
-238 237 0
-238 -226 0
239 238 236 0
-239 -238 0
-239 -236 0
240 235 -239 0
-240 -235 0
-240 239 0
241 -4 -10 0
-241 4 0
-241 10 0
242 -241 -226 0
-242 241 0
-242 226 0
243 241 226 0
-243 -241 0
-243 -226 0
244 243 242 0
-244 -243 0
-244 -242 0
245 199 -244 0
-245 -199 0
-245 244 0
246 -199 244 0
-246 199 0
-246 -244 0
247 246 245 0
-247 -246 0
-247 -245 0
248 -5 -10 0
-248 5 0
-248 10 0
249 -248 192 0
-249 248 0
-249 -192 0
250 240 192 0
-250 -240 0
-250 -192 0
251 -5 -10 0
-251 5 0
-251 10 0
252 -251 240 0
-252 251 0
-252 -240 0
253 250 252 0
-253 -250 0
-253 -252 0
254 -253 249 0
-254 253 0
-254 -249 0
255 -5 -10 0
-255 5 0
-255 10 0
256 -255 -240 0
-256 255 0
-256 240 0
257 255 240 0
-257 -255 0
-257 -240 0
258 256 257 0
-258 -256 0
-258 -257 0
259 -258 192 0
-259 258 0
-259 -192 0
260 258 -192 0
-260 -258 0
-260 192 0
261 259 260 0
-261 -259 0
-261 -260 0
262 -1 -6 0
-262 1 0
-262 6 0
-263 262 0
263 -262 0
-264 -15 0
264 15 0
-265 -79 0
265 79 0
-266 -141 0
266 141 0
-267 -203 0
267 203 0
-268 -219 0
268 219 0
-269 -233 0
269 233 0
-270 -247 0
270 247 0
-271 -261 0
271 261 0
-272 -254 0
272 254 0
-263 0
-264 0
-265 0
266 0
267 0
268 0
-269 0
270 0
-271 0
272 0
